NAME: instances/5_1.tsp
TYPE: TSP
COMMENT: 5-Staedte in Burma (Zaw Win)
DIMENSION: 5
EDGE_WEIGHT_TYPE: GEO
EDGE_WEIGHT_FORMAT: FUNCTION
DISPLAY_DATA_TYPE: COORD_DISPLAY
NODE_COORD_SECTION
1 14.49 15.09
2 -13.34 21.73
3 -19.03 -23.79
4 25.39 -5.66
5 -22.79 12.77
EOF
